============================[ Problem Statistics ]=============================|                                                                             ||  Number of variables:          4242                                         ||  Number of clauses:           10285                                         ||  Parse time:                   0.68 s                                       ||                                                                             |============================[ Search Statistics ]==============================| Conflicts |          ORIGINAL         |          LEARNT          | Progress ||           |    Vars  Clauses Literals |    Limit  Clauses Lit/Cl |          |===============================================================================|       100 |    1591     6490  1072991 |     2379      100     53 | 62.501 % ||       250 |    1591     6490  1072991 |     2617      250     75 | 62.495 % |===============================================================================restarts              : 3conflicts             : 367            (357 /sec)decisions             : 632            (0.00 % random) (614 /sec)propagations          : 11988          (11650 /sec)conflict literals     : 30046          (94.60 % deleted)CPU time              : 1.029 sSATISFIABLE